<number of tasks>
50

<cycle time>
1000

<order strength>
0.197


<task times>
1 155
2 43
3 31
4 166
5 74
6 122
7 42
8 70
9 148
10 250
11 212
12 47
13 365
14 516
15 72
16 60
17 290
18 70
19 260
20 364
21 59
22 194
23 247
24 216
25 445
26 451
27 474
28 241
29 305
30 154
31 250
32 309
33 448
34 143
35 85
36 328
37 94
38 137
39 31
40 285
41 466
42 410
43 39
44 304
45 220
46 486
47 41
48 66
49 487
50 243

<precedence relations>
1,9
2,9
3,9
4,9
5,10
6,11
7,12
8,13
8,14
8,15
8,16
8,17
8,18
9,19
9,20
9,21
9,22
9,40
9,44
10,23
11,24
12,26
13,25
13,41
16,50
17,44
18,27
19,33
20,50
21,31
22,32
23,30
24,28
25,29
27,46
28,35
29,34
31,36
34,37
35,38
35,39
35,40
36,43
37,42
40,41
40,43
41,45
41,48
42,44
42,46
43,47
43,49
43,50

<end>
